NAME : instances/50-tsp/instance-46.tsp
COMMENT : No comment
TYPE : TSP
DIMENSION: 50
EDGE_WEIGHT_TYPE : EUC_2D
NODE_COORD_SECTION
1 1836 1884 
2 1720 232 
3 825 401 
4 817 1639 
5 1745 928 
6 1749 1611 
7 1132 1432 
8 210 518 
9 1276 1569 
10 116 1203 
11 1695 313 
12 380 269 
13 1670 1511 
14 382 1785 
15 1255 189 
16 1807 112 
17 723 426 
18 218 79 
19 198 1449 
20 919 1477 
21 69 369 
22 693 156 
23 188 1094 
24 1291 1492 
25 1775 1324 
26 476 153 
27 1365 750 
28 974 1727 
29 143 1399 
30 778 1136 
31 162 1437 
32 1341 1515 
33 1487 45 
34 1659 36 
35 152 1708 
36 230 795 
37 1858 1880 
38 1856 54 
39 1820 383 
40 1510 338 
41 964 1427 
42 1245 858 
43 1395 46 
44 1600 1990 
45 1311 695 
46 869 352 
47 1061 1462 
48 211 1674 
49 454 1061 
50 1120 284 
EOF
